language ESSENCE' 1.0
letting shiftRequirements = [[5, 1, 2, 4], [4, 1, 2, 5], [4, 1, 2, 5], [4, 1, 2, 5], [5, 1, 2, 4], [7, 1, 1, 3], [7, 1, 1, 3]]
letting numberOfWeeks = 12
letting s_min = 2
letting s_max = 4
